Geographic Exponential Decay
20 31 147 174 249 53 149 4 183 278 161 176 226 71 130 284 152 88 11 277 262
p edge 320 1213
e 0 63 11.0
e 0 69 17.0
e 0 30 12.0
e 0 267 24.0
e 0 172 25.0
e 0 40 9.0
e 0 29 25.0
e 0 184 12.0
e 0 146 20.0
e 0 295 19.0
e 1 238 4.0
e 1 99 2.0
e 2 220 1.0
e 2 248 11.0
e 2 88 90.0
e 3 65 5.0
e 3 117 1.0
e 3 43 19.0
e 4 204 35.0
e 4 24 18.0
e 4 305 9.0
e 4 23 87.0
e 4 180 67.0
e 4 291 61.0
e 4 41 32.0
e 4 105 13.0
e 4 53 79.0
e 4 80 10.0
e 4 183 64.0
e 4 81 51.0
e 4 48 12.0
e 4 25 81.0
e 4 153 60.0
e 4 45 22.0
e 4 75 6.0
e 4 137 58.0
e 4 292 14.0
e 4 84 71.0
e 4 309 54.0
e 4 167 74.0
e 4 299 73.0
e 4 82 27.0
e 4 135 9.0
e 4 274 79.0
e 4 166 59.0
e 4 316 25.0
e 4 152 32.0
e 4 254 18.0
e 4 5 53.0
e 4 12 100.0
e 4 54 92.0
e 4 65 76.0
e 4 133 2.0
e 4 195 22.0
e 4 78 1.0
e 5 173 8.0
e 5 26 23.0
e 5 159 2.0
e 5 207 3.0
e 6 53 87.0
e 6 310 1.0
e 7 171 2.0
e 7 290 3.0
e 8 273 2.0
e 8 198 1.0
e 9 76 2.0
e 9 5 10.0
e 9 277 51.0
e 9 22 3.0
e 9 158 10.0
e 10 115 1.0
e 10 119 1.0
e 11 287 48.0
e 11 163 67.0
e 11 276 20.0
e 11 211 30.0
e 11 300 32.0
e 11 80 100.0
e 11 175 73.0
e 11 18 18.0
e 11 222 12.0
e 11 99 23.0
e 11 1 30.0
e 11 232 98.0
e 11 121 1.0
e 11 133 74.0
e 11 173 51.0
e 11 87 60.0
e 11 174 9.0
e 11 243 70.0
e 11 214 18.0
e 11 192 15.0
e 11 318 78.0
e 11 176 4.0
e 11 40 22.0
e 11 69 85.0
e 11 118 26.0
e 11 21 84.0
e 11 188 12.0
e 11 49 49.0
e 11 90 71.0
e 11 140 42.0
e 11 193 73.0
e 11 185 6.0
e 11 71 68.0
e 11 93 71.0
e 11 182 27.0
e 11 291 57.0
e 11 122 90.0
e 12 300 1.0
e 12 46 1.0
e 13 186 5.0
e 13 70 1.0
e 14 244 1.0
e 14 129 1.0
e 15 138 42.0
e 15 72 2.0
e 16 15 1.0
e 16 302 3.0
e 17 36 7.0
e 17 18 1.0
e 18 147 31.0
e 19 267 1.0
e 19 265 2.0
e 20 102 2.0
e 20 198 5.0
e 21 99 2.0
e 21 19 5.0
e 22 206 1.0
e 23 120 4.0
e 24 105 4.0
e 25 273 2.0
e 26 68 15.0
e 26 143 12.0
e 26 277 1.0
e 26 210 18.0
e 26 139 1.0
e 26 188 13.0
e 26 184 24.0
e 26 104 10.0
e 26 75 8.0
e 27 228 1.0
e 27 80 1.0
e 28 268 1.0
e 28 176 96.0
e 29 106 1.0
e 29 318 1.0
e 29 205 17.0
e 29 28 4.0
e 29 33 3.0
e 29 253 45.0
e 29 4 1.0
e 29 105 39.0
e 29 169 14.0
e 29 297 34.0
e 29 38 9.0
e 29 303 32.0
e 29 144 26.0
e 29 278 54.0
e 29 125 15.0
e 29 68 33.0
e 29 88 50.0
e 29 87 42.0
e 30 37 5.0
e 30 170 2.0
e 31 29 86.0
e 31 236 14.0
e 31 179 12.0
e 31 265 71.0
e 31 175 39.0
e 31 305 37.0
e 31 32 19.0
e 31 59 43.0
e 31 125 78.0
e 31 135 34.0
e 31 212 73.0
e 31 30 92.0
e 31 198 44.0
e 31 88 9.0
e 31 84 52.0
e 31 301 56.0
e 31 61 13.0
e 31 121 94.0
e 31 18 64.0
e 31 64 39.0
e 31 244 77.0
e 31 205 62.0
e 31 115 39.0
e 31 208 61.0
e 31 281 23.0
e 31 241 40.0
e 31 47 49.0
e 31 124 59.0
e 31 225 43.0
e 31 85 17.0
e 31 290 72.0
e 31 154 25.0
e 31 146 57.0
e 31 49 63.0
e 31 253 93.0
e 31 93 67.0
e 31 116 24.0
e 32 119 4.0
e 33 0 9.0
e 34 225 1.0
e 34 268 1.0
e 35 250 3.0
e 35 288 4.0
e 35 63 1.0
e 36 237 8.0
e 36 28 9.0
e 36 29 12.0
e 36 89 11.0
e 37 121 1.0
e 38 9 1.0
e 38 186 3.0
e 39 204 1.0
e 39 15 2.0
e 41 176 49.0
e 41 312 9.0
e 41 68 24.0
e 41 195 1.0
e 41 12 13.0
e 41 22 23.0
e 41 259 11.0
e 41 105 9.0
e 41 237 10.0
e 42 148 1.0
e 42 295 7.0
e 43 59 21.0
e 43 56 20.0
e 43 106 38.0
e 43 25 18.0
e 43 5 5.0
e 43 254 23.0
e 43 92 10.0
e 43 109 16.0
e 43 305 12.0
e 44 164 4.0
e 44 317 4.0
e 44 19 1.0
e 45 242 1.0
e 46 191 1.0
e 47 26 23.0
e 47 138 44.0
e 47 292 7.0
e 47 91 11.0
e 48 117 2.0
e 50 290 1.0
e 50 43 3.0
e 51 82 1.0
e 51 118 10.0
e 52 119 5.0
e 52 202 1.0
e 52 81 6.0
e 53 148 80.0
e 53 83 1.0
e 53 135 29.0
e 53 283 97.0
e 53 72 21.0
e 53 86 41.0
e 53 98 93.0
e 53 91 12.0
e 53 66 30.0
e 53 219 24.0
e 53 46 84.0
e 53 107 88.0
e 53 131 66.0
e 53 179 64.0
e 53 102 48.0
e 53 312 61.0
e 53 103 22.0
e 53 274 59.0
e 53 30 87.0
e 53 308 22.0
e 53 55 42.0
e 53 150 19.0
e 53 205 23.0
e 53 41 57.0
e 53 236 95.0
e 53 34 26.0
e 53 111 31.0
e 53 47 72.0
e 53 101 80.0
e 53 61 22.0
e 53 281 18.0
e 53 221 70.0
e 53 109 90.0
e 53 267 2.0
e 53 56 81.0
e 54 18 5.0
e 54 101 4.0
e 55 193 3.0
e 55 242 1.0
e 57 141 1.0
e 57 306 2.0
e 58 205 1.0
e 58 251 2.0
e 59 69 6.0
e 60 78 45.0
e 60 217 18.0
e 60 201 31.0
e 60 146 44.0
e 60 196 17.0
e 60 165 13.0
e 60 71 3.0
e 60 154 24.0
e 60 257 1.0
e 60 37 12.0
e 60 250 20.0
e 60 197 12.0
e 60 258 33.0
e 60 267 49.0
e 60 61 8.0
e 60 180 5.0
e 60 273 45.0
e 60 256 42.0
e 60 84 18.0
e 62 34 1.0
e 62 243 3.0
e 64 81 3.0
e 65 92 1.0
e 66 301 5.0
e 66 73 2.0
e 66 110 3.0
e 66 148 6.0
e 67 94 9.0
e 67 228 10.0
e 67 16 2.0
e 67 75 9.0
e 67 45 1.0
e 68 136 5.0
e 68 104 9.0
e 69 256 24.0
e 69 268 19.0
e 69 227 3.0
e 69 164 18.0
e 69 93 15.0
e 69 222 3.0
e 69 94 21.0
e 70 156 2.0
e 71 120 45.0
e 71 290 28.0
e 71 288 11.0
e 71 181 53.0
e 71 277 74.0
e 71 105 61.0
e 71 47 69.0
e 71 193 9.0
e 71 293 45.0
e 71 124 93.0
e 71 72 66.0
e 71 238 84.0
e 71 121 35.0
e 71 104 45.0
e 71 314 16.0
e 71 128 54.0
e 71 10 53.0
e 71 287 32.0
e 71 55 87.0
e 71 131 62.0
e 71 25 42.0
e 71 178 60.0
e 71 69 35.0
e 71 216 17.0
e 71 61 94.0
e 71 161 61.0
e 71 219 44.0
e 71 70 61.0
e 71 132 58.0
e 71 247 14.0
e 71 64 85.0
e 71 84 98.0
e 71 127 36.0
e 71 99 29.0
e 71 258 12.0
e 73 173 1.0
e 73 220 1.0
e 74 112 5.0
e 74 273 3.0
e 74 258 2.0
e 75 278 52.0
e 75 199 2.0
e 76 86 19.0
e 76 56 16.0
e 76 306 10.0
e 76 184 10.0
e 76 75 13.0
e 76 80 18.0
e 76 216 15.0
e 76 63 10.0
e 76 260 13.0
e 77 57 3.0
e 77 20 1.0
e 79 189 4.0
e 79 253 1.0
e 79 297 5.0
e 83 42 1.0
e 84 292 9.0
e 85 19 2.0
e 88 95 67.0
e 88 155 77.0
e 88 133 61.0
e 88 303 85.0
e 88 104 3.0
e 88 200 39.0
e 88 41 28.0
e 88 277 52.0
e 88 313 91.0
e 88 40 62.0
e 88 280 46.0
e 88 143 66.0
e 88 35 51.0
e 88 81 45.0
e 88 51 71.0
e 88 257 3.0
e 88 318 17.0
e 88 292 72.0
e 88 234 58.0
e 88 255 85.0
e 88 49 48.0
e 88 157 27.0
e 88 226 44.0
e 88 27 78.0
e 88 293 81.0
e 88 39 89.0
e 88 180 69.0
e 88 249 85.0
e 88 58 38.0
e 88 295 24.0
e 88 235 98.0
e 88 219 49.0
e 88 314 37.0
e 88 244 47.0
e 89 21 3.0
e 90 133 1.0
e 92 254 1.0
e 94 123 2.0
e 95 61 1.0
e 96 284 14.0
e 96 149 40.0
e 97 103 3.0
e 97 167 2.0
e 98 120 5.0
e 98 122 7.0
e 98 66 8.0
e 98 229 2.0
e 100 309 1.0
e 100 48 1.0
e 100 183 51.0
e 100 217 8.0
e 100 250 1.0
e 103 198 4.0
e 106 60 31.0
e 106 197 18.0
e 106 44 42.0
e 106 293 11.0
e 106 173 49.0
e 106 151 5.0
e 106 149 27.0
e 106 265 40.0
e 106 56 38.0
e 106 77 17.0
e 106 124 3.0
e 106 138 15.0
e 106 183 63.0
e 106 105 3.0
e 106 23 22.0
e 106 86 34.0
e 106 41 49.0
e 107 136 1.0
e 108 202 6.0
e 108 5 8.0
e 108 317 1.0
e 108 185 1.0
e 108 173 4.0
e 110 52 4.0
e 111 227 4.0
e 111 148 1.0
e 112 8 1.0
e 112 152 36.0
e 113 71 33.0
e 113 273 1.0
e 114 59 1.0
e 114 1 1.0
e 116 181 3.0
e 116 132 3.0
e 118 150 1.0
e 118 110 1.0
e 118 3 7.0
e 123 255 2.0
e 125 96 1.0
e 126 254 2.0
e 126 65 1.0
e 127 210 2.0
e 127 297 6.0
e 128 189 2.0
e 129 23 2.0
e 129 310 9.0
e 129 255 18.0
e 129 228 1.0
e 129 292 1.0
e 129 178 46.0
e 129 220 23.0
e 129 112 17.0
e 129 139 2.0
e 130 156 1.0
e 130 286 73.0
e 130 259 2.0
e 130 150 52.0
e 130 263 92.0
e 130 162 34.0
e 130 111 98.0
e 130 88 12.0
e 130 39 23.0
e 130 30 56.0
e 130 124 12.0
e 130 47 40.0
e 130 308 97.0
e 130 288 89.0
e 130 61 98.0
e 130 125 62.0
e 130 287 8.0
e 130 147 53.0
e 130 77 77.0
e 130 272 99.0
e 130 155 10.0
e 130 236 8.0
e 130 149 96.0
e 130 294 78.0
e 130 289 26.0
e 130 296 22.0
e 130 195 31.0
e 130 201 65.0
e 130 40 40.0
e 130 94 5.0
e 130 251 36.0
e 130 290 8.0
e 130 291 52.0
e 130 22 35.0
e 130 45 11.0
e 130 209 2.0
e 130 309 93.0
e 132 115 1.0
e 134 279 2.0
e 134 272 2.0
e 135 46 3.0
e 135 313 10.0
e 135 286 16.0
e 135 50 7.0
e 135 28 24.0
e 135 214 17.0
e 135 43 1.0
e 136 144 1.0
e 137 116 3.0
e 138 190 2.0
e 138 242 7.0
e 138 1 32.0
e 138 105 32.0
e 138 206 17.0
e 138 97 17.0
e 138 94 18.0
e 138 198 36.0
e 138 83 11.0
e 138 133 45.0
e 138 274 19.0
e 138 95 38.0
e 138 289 23.0
e 138 223 20.0
e 138 19 27.0
e 138 272 42.0
e 139 244 5.0
e 140 20 1.0
e 141 26 13.0
e 142 312 5.0
e 142 2 3.0
e 142 93 10.0
e 142 103 7.0
e 142 183 8.0
e 145 83 3.0
e 145 94 2.0
e 145 215 5.0
e 146 286 2.0
e 146 294 11.0
e 147 55 11.0
e 147 204 94.0
e 147 111 85.0
e 147 13 66.0
e 147 127 61.0
e 147 43 75.0
e 147 244 61.0
e 147 5 2.0
e 147 23 76.0
e 147 126 77.0
e 147 8 14.0
e 147 207 24.0
e 147 83 64.0
e 147 258 87.0
e 147 6 5.0
e 147 118 61.0
e 147 295 8.0
e 147 184 65.0
e 147 197 97.0
e 147 269 97.0
e 147 9 39.0
e 147 284 81.0
e 147 110 92.0
e 147 131 32.0
e 147 195 94.0
e 147 103 32.0
e 147 135 30.0
e 147 106 89.0
e 147 10 33.0
e 147 48 74.0
e 147 230 91.0
e 147 7 91.0
e 147 52 8.0
e 147 245 18.0
e 147 263 60.0
e 149 172 80.0
e 149 157 38.0
e 149 107 90.0
e 149 237 64.0
e 149 87 73.0
e 149 86 90.0
e 149 19 77.0
e 149 131 33.0
e 149 186 22.0
e 149 203 16.0
e 149 56 43.0
e 149 90 93.0
e 149 48 54.0
e 149 132 25.0
e 149 128 42.0
e 149 310 66.0
e 149 173 99.0
e 149 252 38.0
e 149 214 85.0
e 149 171 27.0
e 149 242 11.0
e 149 138 52.0
e 149 123 18.0
e 149 294 31.0
e 149 65 38.0
e 149 81 89.0
e 149 34 51.0
e 149 217 11.0
e 149 53 79.0
e 149 44 95.0
e 149 144 19.0
e 149 165 96.0
e 149 27 41.0
e 149 4 24.0
e 151 186 1.0
e 151 202 5.0
e 152 36 72.0
e 152 16 99.0
e 152 67 56.0
e 152 126 79.0
e 152 207 8.0
e 152 100 88.0
e 152 144 82.0
e 152 15 54.0
e 152 159 19.0
e 152 268 58.0
e 152 142 94.0
e 152 23 6.0
e 152 208 45.0
e 152 221 77.0
e 152 242 69.0
e 152 175 12.0
e 152 243 56.0
e 152 225 64.0
e 152 205 40.0
e 152 178 22.0
e 152 172 46.0
e 152 176 13.0
e 152 153 76.0
e 152 182 2.0
e 152 184 35.0
e 152 165 17.0
e 152 41 43.0
e 152 127 58.0
e 152 298 28.0
e 152 108 42.0
e 152 82 20.0
e 152 264 30.0
e 152 134 46.0
e 152 179 47.0
e 152 212 41.0
e 153 235 2.0
e 155 314 7.0
e 155 191 3.0
e 155 161 13.0
e 157 317 9.0
e 157 125 6.0
e 157 21 6.0
e 158 232 6.0
e 160 161 49.0
e 160 290 2.0
e 161 176 37.0
e 161 99 66.0
e 161 47 80.0
e 161 288 9.0
e 161 202 96.0
e 161 64 42.0
e 161 189 55.0
e 161 111 34.0
e 161 114 62.0
e 161 65 4.0
e 161 35 78.0
e 161 302 72.0
e 161 153 67.0
e 161 48 85.0
e 161 268 57.0
e 161 26 91.0
e 161 312 59.0
e 161 162 38.0
e 161 5 68.0
e 161 197 22.0
e 161 220 36.0
e 161 260 60.0
e 161 43 98.0
e 161 203 87.0
e 161 259 84.0
e 161 69 88.0
e 161 67 22.0
e 161 318 79.0
e 161 91 43.0
e 161 275 94.0
e 161 183 25.0
e 161 92 32.0
e 161 244 11.0
e 161 274 24.0
e 162 251 10.0
e 162 122 11.0
e 162 67 1.0
e 162 95 15.0
e 162 241 16.0
e 162 136 7.0
e 162 146 16.0
e 162 242 24.0
e 163 122 1.0
e 164 33 4.0
e 166 159 1.0
e 168 30 3.0
e 168 125 5.0
e 169 81 2.0
e 170 296 2.0
e 172 269 9.0
e 172 314 12.0
e 174 100 49.0
e 174 226 33.0
e 174 221 69.0
e 174 62 64.0
e 174 76 85.0
e 174 33 13.0
e 174 241 33.0
e 174 25 82.0
e 174 101 79.0
e 174 8 59.0
e 174 224 89.0
e 174 137 66.0
e 174 268 50.0
e 174 106 12.0
e 174 222 22.0
e 174 295 47.0
e 174 193 38.0
e 174 75 23.0
e 174 225 99.0
e 174 250 97.0
e 174 139 62.0
e 174 28 63.0
e 174 83 43.0
e 174 23 95.0
e 174 217 46.0
e 174 15 40.0
e 174 168 26.0
e 174 165 7.0
e 174 0 19.0
e 174 118 94.0
e 174 108 12.0
e 174 133 29.0
e 174 30 54.0
e 174 190 48.0
e 174 184 37.0
e 174 119 30.0
e 175 174 96.0
e 175 154 13.0
e 175 89 21.0
e 175 26 8.0
e 175 317 12.0
e 175 248 12.0
e 175 206 22.0
e 176 42 23.0
e 176 268 10.0
e 176 242 52.0
e 176 213 38.0
e 176 95 95.0
e 176 112 90.0
e 176 189 48.0
e 176 304 67.0
e 176 243 83.0
e 176 117 32.0
e 176 52 30.0
e 176 69 73.0
e 176 173 88.0
e 176 186 96.0
e 176 174 53.0
e 176 313 15.0
e 176 290 33.0
e 176 3 56.0
e 176 233 25.0
e 176 98 72.0
e 176 288 35.0
e 176 78 2.0
e 176 298 66.0
e 176 75 31.0
e 176 148 78.0
e 176 122 85.0
e 176 61 35.0
e 176 67 45.0
e 176 149 15.0
e 176 194 40.0
e 176 175 31.0
e 176 25 33.0
e 177 254 2.0
e 177 115 1.0
e 178 80 48.0
e 178 171 11.0
e 178 193 29.0
e 178 180 25.0
e 178 121 48.0
e 178 260 2.0
e 178 204 19.0
e 178 110 4.0
e 178 148 15.0
e 178 149 55.0
e 178 205 49.0
e 178 170 46.0
e 178 220 27.0
e 178 221 9.0
e 178 167 7.0
e 178 44 46.0
e 181 201 4.0
e 183 198 98.0
e 183 101 27.0
e 183 93 9.0
e 183 60 76.0
e 183 153 25.0
e 183 117 6.0
e 183 9 67.0
e 183 208 40.0
e 183 95 29.0
e 183 68 50.0
e 183 56 28.0
e 183 210 43.0
e 183 168 58.0
e 183 32 64.0
e 183 291 2.0
e 183 235 88.0
e 183 232 44.0
e 183 151 64.0
e 183 136 87.0
e 183 203 51.0
e 183 91 84.0
e 183 92 61.0
e 183 262 28.0
e 183 76 71.0
e 183 51 50.0
e 183 152 49.0
e 183 220 91.0
e 183 248 43.0
e 183 77 23.0
e 183 246 75.0
e 183 11 67.0
e 183 88 67.0
e 187 263 1.0
e 187 205 1.0
e 187 165 1.0
e 192 168 2.0
e 194 207 2.0
e 196 18 1.0
e 197 226 82.0
e 197 19 20.0
e 197 189 7.0
e 197 247 21.0
e 197 35 16.0
e 197 253 11.0
e 199 77 1.0
e 200 284 27.0
e 209 270 1.0
e 211 72 5.0
e 211 294 4.0
e 213 177 4.0
e 213 231 11.0
e 215 286 1.0
e 218 140 2.0
e 218 313 2.0
e 223 241 5.0
e 223 143 2.0
e 224 60 13.0
e 226 34 17.0
e 226 8 52.0
e 226 128 5.0
e 226 181 95.0
e 226 50 51.0
e 226 151 31.0
e 226 231 40.0
e 226 286 94.0
e 226 289 12.0
e 226 291 61.0
e 226 122 85.0
e 226 114 11.0
e 226 176 12.0
e 226 178 51.0
e 226 164 11.0
e 226 69 70.0
e 226 56 13.0
e 226 241 14.0
e 226 221 68.0
e 226 264 9.0
e 226 227 56.0
e 226 24 49.0
e 226 306 8.0
e 226 38 62.0
e 226 265 19.0
e 226 175 74.0
e 226 214 24.0
e 226 49 29.0
e 226 244 41.0
e 226 166 91.0
e 226 247 27.0
e 226 228 58.0
e 226 99 13.0
e 226 53 41.0
e 229 133 1.0
e 230 107 7.0
e 230 121 8.0
e 230 200 6.0
e 230 75 7.0
e 231 56 1.0
e 231 287 6.0
e 231 130 9.0
e 232 275 6.0
e 232 295 8.0
e 233 108 1.0
e 234 307 3.0
e 236 72 17.0
e 236 7 37.0
e 236 76 48.0
e 236 206 43.0
e 236 9 8.0
e 236 111 10.0
e 236 261 47.0
e 236 97 25.0
e 236 288 41.0
e 236 165 11.0
e 236 132 41.0
e 236 180 13.0
e 236 147 18.0
e 236 127 38.0
e 236 95 22.0
e 236 39 40.0
e 238 79 1.0
e 239 43 23.0
e 239 186 1.0
e 239 280 5.0
e 240 11 95.0
e 240 181 3.0
e 240 64 3.0
e 240 107 2.0
e 240 164 10.0
e 245 273 21.0
e 245 96 18.0
e 245 208 5.0
e 245 186 14.0
e 245 219 3.0
e 245 170 18.0
e 245 139 16.0
e 245 275 17.0
e 245 15 3.0
e 246 40 18.0
e 246 22 15.0
e 246 307 9.0
e 246 235 3.0
e 246 56 12.0
e 246 72 1.0
e 246 18 18.0
e 246 160 1.0
e 246 295 20.0
e 248 97 12.0
e 248 211 12.0
e 249 312 64.0
e 249 182 79.0
e 249 56 62.0
e 249 208 34.0
e 249 151 9.0
e 249 145 100.0
e 249 147 38.0
e 249 250 10.0
e 249 306 87.0
e 249 262 69.0
e 249 116 55.0
e 249 23 72.0
e 249 227 36.0
e 249 299 8.0
e 249 199 69.0
e 249 4 97.0
e 249 206 36.0
e 249 144 69.0
e 249 49 28.0
e 249 93 56.0
e 249 282 18.0
e 249 207 10.0
e 249 1 89.0
e 249 267 5.0
e 249 24 46.0
e 249 273 57.0
e 249 166 35.0
e 249 245 50.0
e 249 251 31.0
e 249 201 56.0
e 249 113 20.0
e 249 2 94.0
e 249 191 27.0
e 249 217 23.0
e 249 268 12.0
e 249 173 80.0
e 252 59 3.0
e 252 276 1.0
e 256 129 6.0
e 257 89 11.0
e 257 74 8.0
e 257 206 6.0
e 260 95 4.0
e 260 24 11.0
e 261 120 5.0
e 262 139 25.0
e 262 266 73.0
e 262 177 4.0
e 262 12 42.0
e 262 304 94.0
e 262 125 60.0
e 262 268 79.0
e 262 270 100.0
e 262 208 13.0
e 262 219 73.0
e 262 306 76.0
e 262 51 8.0
e 262 34 10.0
e 262 70 9.0
e 262 159 97.0
e 262 118 83.0
e 262 275 61.0
e 262 186 66.0
e 262 187 42.0
e 262 114 29.0
e 262 189 100.0
e 262 263 85.0
e 262 231 14.0
e 262 134 67.0
e 262 229 88.0
e 262 193 15.0
e 262 288 18.0
e 262 128 87.0
e 262 182 67.0
e 262 245 64.0
e 262 2 18.0
e 262 55 29.0
e 262 13 37.0
e 262 126 19.0
e 262 276 49.0
e 263 276 7.0
e 264 158 12.0
e 264 85 7.0
e 264 187 3.0
e 266 316 2.0
e 271 137 1.0
e 271 286 1.0
e 277 47 36.0
e 277 81 61.0
e 277 267 56.0
e 277 156 54.0
e 277 85 92.0
e 277 315 72.0
e 277 181 68.0
e 277 295 28.0
e 277 223 8.0
e 277 157 49.0
e 277 296 75.0
e 277 16 70.0
e 277 101 16.0
e 277 224 83.0
e 277 285 7.0
e 277 66 33.0
e 277 180 47.0
e 277 145 99.0
e 277 107 86.0
e 277 100 98.0
e 277 176 52.0
e 277 163 21.0
e 277 148 95.0
e 277 297 75.0
e 277 168 67.0
e 277 14 48.0
e 277 96 78.0
e 277 23 88.0
e 277 64 79.0
e 277 108 42.0
e 277 67 15.0
e 277 161 97.0
e 277 208 16.0
e 278 264 8.0
e 278 248 56.0
e 278 243 3.0
e 278 297 20.0
e 278 95 71.0
e 278 15 83.0
e 278 271 21.0
e 278 2 70.0
e 278 100 60.0
e 278 215 68.0
e 278 229 97.0
e 278 299 77.0
e 278 225 19.0
e 278 134 76.0
e 278 316 25.0
e 278 17 46.0
e 278 80 46.0
e 278 235 71.0
e 278 183 60.0
e 278 268 10.0
e 278 259 23.0
e 278 81 20.0
e 278 37 82.0
e 278 87 6.0
e 278 165 63.0
e 278 194 67.0
e 278 180 72.0
e 278 141 60.0
e 278 190 98.0
e 278 16 21.0
e 278 45 16.0
e 278 85 43.0
e 278 36 70.0
e 278 226 52.0
e 278 14 15.0
e 279 240 10.0
e 282 297 5.0
e 282 181 2.0
e 283 25 2.0
e 284 50 58.0
e 284 120 88.0
e 284 213 78.0
e 284 317 68.0
e 284 176 23.0
e 284 51 80.0
e 284 35 28.0
e 284 25 64.0
e 284 165 72.0
e 284 182 30.0
e 284 67 72.0
e 284 142 74.0
e 284 103 86.0
e 284 121 59.0
e 284 47 74.0
e 284 1 5.0
e 284 198 20.0
e 284 307 20.0
e 284 98 16.0
e 284 264 64.0
e 284 68 60.0
e 284 124 19.0
e 284 245 79.0
e 284 19 41.0
e 284 24 52.0
e 284 210 47.0
e 284 219 16.0
e 284 265 36.0
e 284 261 48.0
e 284 221 18.0
e 284 154 47.0
e 284 315 97.0
e 284 101 12.0
e 284 242 19.0
e 285 311 1.0
e 298 261 4.0
e 300 318 1.0
e 302 241 5.0
e 303 219 3.0
e 303 143 12.0
e 303 48 11.0
e 304 95 4.0
e 308 304 13.0
e 308 185 19.0
e 308 11 49.0
e 308 131 15.0
e 308 218 12.0
e 308 96 10.0
e 308 217 7.0
e 308 154 23.0
e 311 113 2.0
e 312 254 16.0
e 312 106 31.0
e 312 119 7.0
e 312 313 1.0
e 312 42 8.0
e 315 243 1.0
e 315 22 4.0
e 315 225 1.0
e 319 53 20.0
e 319 136 2.0
